
Gurobi 6.0.5 (linux64) logging started Fri Oct 20 12:47:59 2017


Gurobi 6.0.5 (linux64) logging started Fri Oct 20 12:53:14 2017


Gurobi 6.0.5 (linux64) logging started Fri Oct 20 12:56:05 2017


Gurobi 6.0.5 (linux64) logging started Fri Oct 20 12:59:20 2017


Gurobi 6.0.5 (linux64) logging started Fri Oct 20 13:03:08 2017


Gurobi 6.0.5 (linux64) logging started Fri Oct 20 13:07:37 2017


Gurobi 6.0.5 (linux64) logging started Fri Oct 20 13:12:50 2017


Gurobi 6.0.5 (linux64) logging started Fri Oct 20 13:18:47 2017


Gurobi 6.0.5 (linux64) logging started Fri Oct 20 13:25:57 2017


Gurobi 6.0.5 (linux64) logging started Fri Oct 20 14:20:38 2017


Gurobi 6.0.5 (linux64) logging started Fri Oct 20 14:21:07 2017


Gurobi 6.0.5 (linux64) logging started Fri Oct 20 14:28:16 2017


Gurobi 6.0.5 (linux64) logging started Fri Oct 20 14:28:50 2017


Gurobi 6.0.5 (linux64) logging started Fri Oct 20 14:33:01 2017


Gurobi 6.0.5 (linux64) logging started Fri Oct 20 14:33:37 2017


Gurobi 6.0.5 (linux64) logging started Fri Oct 20 14:38:29 2017


Gurobi 6.0.5 (linux64) logging started Fri Oct 20 14:39:12 2017


Gurobi 6.0.5 (linux64) logging started Fri Oct 20 14:43:20 2017


Gurobi 6.0.5 (linux64) logging started Fri Oct 20 14:44:25 2017


Gurobi 6.0.5 (linux64) logging started Fri Oct 20 14:52:00 2017


Gurobi 6.0.5 (linux64) logging started Fri Oct 20 14:53:14 2017


Gurobi 6.0.5 (linux64) logging started Fri Oct 20 14:55:03 2017


Gurobi 6.0.5 (linux64) logging started Fri Oct 20 15:31:23 2017


Gurobi 6.0.5 (linux64) logging started Fri Oct 20 15:31:58 2017


Gurobi 6.0.5 (linux64) logging started Fri Oct 20 15:34:19 2017


Gurobi 6.0.5 (linux64) logging started Fri Oct 20 15:34:50 2017


Gurobi 6.0.5 (linux64) logging started Fri Oct 20 15:41:08 2017


Gurobi 6.0.5 (linux64) logging started Fri Oct 20 15:41:33 2017


Gurobi 6.0.5 (linux64) logging started Fri Oct 20 15:43:25 2017


Gurobi 6.0.5 (linux64) logging started Fri Oct 20 15:45:43 2017


Gurobi 6.0.5 (linux64) logging started Fri Oct 20 15:50:46 2017


Gurobi 6.0.5 (linux64) logging started Fri Oct 20 15:52:58 2017


Gurobi 6.0.5 (linux64) logging started Fri Oct 20 15:57:07 2017


Gurobi 6.0.5 (linux64) logging started Fri Oct 20 15:59:27 2017


Gurobi 6.0.5 (linux64) logging started Fri Oct 20 16:04:53 2017


Gurobi 6.0.5 (linux64) logging started Fri Oct 20 16:07:27 2017


Gurobi 6.0.5 (linux64) logging started Fri Oct 20 16:12:45 2017


Gurobi 6.0.5 (linux64) logging started Fri Oct 20 16:14:43 2017


Gurobi 6.0.5 (linux64) logging started Fri Oct 20 16:20:55 2017


Gurobi 6.0.5 (linux64) logging started Fri Oct 20 16:22:45 2017

